
  32    4
  10   10   10   10

   0   0   0   0   0   1 2 
   8   1   1   0   1   1 3 
   6   3   1   0   7   1 4 
   4   5   4   1   0   1 5 
   2   3   5   5   0   2 18 6 
   9   1   0   5   4   1 7 
   1   3   4   3   0   1 8 
   9   5   6   0   4   2 11 9 
   4   0   4   4   4   2 16 10 
   8   2   5   0   5   2 26 12 
   8   8   0   6   7   2 16 14 
   2   4   0   2   6   1 13 
   6   2   0   5   5   1 14 
   6   0   6   5   3   1 15 
   2   0   4   8   6   1 17 
  10   3   0   2   2   1 17 
   6   4   4   4   0   1 19 
   1   3   0   2   2   1 19 
  10   5   3   0   5   1 20 
   9   2   0   4   5   2 25 21 
   4   3   0   5   3   2 28 22 
   2   5   0   4   6   1 23 
   7   3   4   0   2   1 24 
  10   7   5   0   4   1 27 
  10   0   6   4   4   1 28 
   3   9   3   6   0   1 27 
   5   4   3   0   4   1 29 
  10   5   0   3   3   1 29 
   7   6   6   0   2   1 30 
   9   0   4   1   2   1 31 
   3   4   2   5   0   1 32
   0   0   0   0   0   0 
